p edge 1323
e 0 253
e 0 254
e 0 1218
e 1 2
e 1 1130
e 1 1163
e 1 1164
e 2 872
e 2 874
e 2 1163
e 2 1164
e 3 4
e 3 92
e 3 98
e 3 99
e 3 1252
e 4 97
e 4 98
e 4 99
e 4 1225
e 4 1229
e 5 101
e 5 158
e 5 160
e 5 740
e 5 745
e 5 749
e 5 1046
e 6 162
e 6 164
e 6 735
e 6 736
e 6 1278
e 7 259
e 7 753
e 7 754
e 7 818
e 7 1028
e 7 1031
e 7 1212
e 8 9
e 8 10
e 8 778
e 8 952
e 8 1134
e 8 1145
e 9 11
e 9 952
e 9 953
e 9 1145
e 10 778
e 10 952
e 10 1143
e 11 242
e 11 947
e 11 953
e 11 1145
e 11 1146
e 11 1147
e 11 1149
e 12 242
e 12 783
e 12 1146
e 12 1147
e 13 59
e 13 652
e 13 1274
e 13 1281
e 14 229
e 14 230
e 14 238
e 14 493
e 14 956
e 14 1151
e 15 239
e 15 919
e 15 1135
e 15 1150
e 16 1135
e 16 1136
e 16 1152
e 16 1153
e 16 1161
e 17 56
e 17 227
e 17 228
e 17 235
e 17 1135
e 18 20
e 18 121
e 18 650
e 18 794
e 18 983
e 18 1286
e 19 105
e 19 362
e 19 365
e 19 480
e 19 1025
e 20 596
e 20 650
e 21 190
e 21 191
e 21 649
e 21 1042
e 21 1043
e 21 1084
e 22 23
e 22 73
e 22 470
e 22 682
e 22 1038
e 22 1041
e 22 1069
e 22 1072
e 23 73
e 23 189
e 23 1069
e 23 1074
e 24 982
e 24 983
e 24 1113
e 24 1247
e 25 500
e 25 503
e 25 786
e 25 787
e 25 791
e 26 27
e 26 503
e 26 986
e 26 1114
e 27 503
e 27 985
e 27 1115
e 28 79
e 28 81
e 28 326
e 28 508
e 28 511
e 28 513
e 28 1172
e 29 504
e 29 508
e 29 514
e 29 592
e 29 792
e 30 48
e 30 51
e 30 53
e 30 114
e 31 33
e 31 125
e 31 884
e 31 885
e 31 1077
e 32 126
e 32 196
e 32 200
e 32 888
e 33 125
e 33 200
e 33 218
e 33 885
e 34 39
e 34 1086
e 34 1089
e 34 1091
e 34 1098
e 34 1246
e 35 1252
e 36 42
e 36 544
e 36 545
e 36 830
e 37 843
e 37 875
e 37 922
e 37 923
e 37 935
e 38 841
e 38 846
e 38 876
e 38 877
e 38 929
e 38 942
e 39 41
e 39 1089
e 39 1091
e 39 1274
e 40 1089
e 40 1092
e 40 1094
e 40 1098
e 40 1099
e 40 1100
e 41 1100
e 41 1236
e 41 1265
e 41 1271
e 42 43
e 42 338
e 42 544
e 42 547
e 42 629
e 42 635
e 42 824
e 42 830
e 42 831
e 43 547
e 43 629
e 43 967
e 43 968
e 44 846
e 44 847
e 44 848
e 44 942
e 44 943
e 44 1298
e 45 301
e 45 613
e 45 659
e 45 660
e 45 920
e 45 924
e 45 938
e 46 47
e 46 95
e 46 117
e 46 1075
e 47 50
e 47 54
e 47 115
e 47 117
e 47 1075
e 48 51
e 48 54
e 48 55
e 48 114
e 48 117
e 48 319
e 48 1141
e 49 50
e 49 55
e 49 115
e 49 319
e 50 54
e 50 55
e 50 115
e 51 52
e 51 53
e 51 234
e 51 1141
e 52 53
e 52 114
e 52 234
e 53 114
e 54 55
e 54 117
e 55 319
e 56 57
e 56 227
e 56 234
e 56 1141
e 57 114
e 57 234
e 57 240
e 57 959
e 58 59
e 58 175
e 58 1264
e 58 1272
e 59 175
e 59 571
e 59 1264
e 60 120
e 60 132
e 60 551
e 60 556
e 60 1119
e 60 1286
e 61 64
e 61 65
e 61 67
e 61 68
e 61 1111
e 61 1303
e 62 66
e 62 93
e 62 116
e 62 490
e 62 1131
e 62 1132
e 62 1160
e 62 1315
e 62 1316
e 63 65
e 63 66
e 63 67
e 63 796
e 63 808
e 63 809
e 63 1107
e 63 1111
e 64 68
e 64 782
e 64 1303
e 65 66
e 65 67
e 65 68
e 66 68
e 66 490
e 66 809
e 66 1144
e 66 1316
e 67 1111
e 68 782
e 68 1133
e 69 430
e 69 523
e 69 530
e 69 531
e 70 321
e 70 426
e 70 427
e 70 429
e 70 673
e 70 1095
e 71 448
e 71 471
e 71 472
e 71 473
e 72 520
e 72 651
e 72 1034
e 72 1073
e 73 470
e 73 651
e 73 1074
e 74 976
e 74 1114
e 74 1116
e 74 1207
e 75 76
e 75 130
e 75 184
e 75 185
e 75 186
e 75 188
e 76 184
e 76 186
e 76 501
e 76 510
e 77 78
e 77 80
e 77 81
e 77 1309
e 78 80
e 78 1309
e 79 81
e 79 633
e 79 827
e 79 1172
e 79 1309
e 80 81
e 80 82
e 80 978
e 80 1308
e 80 1309
e 81 511
e 81 978
e 81 1309
e 82 446
e 82 594
e 82 891
e 82 978
e 82 1308
e 83 84
e 83 223
e 84 85
e 84 222
e 84 223
e 84 329
e 84 629
e 84 967
e 85 86
e 85 203
e 85 223
e 85 329
e 85 632
e 85 884
e 86 223
e 86 224
e 86 884
e 86 887
e 87 88
e 87 90
e 87 337
e 87 700
e 88 89
e 88 90
e 88 700
e 88 894
e 89 90
e 89 471
e 89 892
e 89 894
e 90 262
e 90 337
e 90 610
e 90 714
e 90 892
e 91 334
e 91 337
e 91 609
e 91 700
e 92 94
e 92 95
e 92 98
e 92 100
e 92 1252
e 93 94
e 93 100
e 93 116
e 93 1315
e 93 1316
e 94 97
e 94 98
e 94 100
e 94 488
e 94 811
e 94 1316
e 95 100
e 95 117
e 95 1075
e 95 1252
e 95 1253
e 96 169
e 96 268
e 96 752
e 96 1059
e 97 98
e 97 488
e 97 799
e 97 1225
e 97 1317
e 99 772
e 99 1210
e 99 1228
e 99 1229
e 99 1252
e 100 1075
e 101 157
e 101 740
e 101 745
e 101 1045
e 101 1049
e 101 1060
e 102 158
e 102 159
e 102 745
e 102 746
e 103 316
e 103 394
e 103 406
e 103 407
e 103 408
e 103 462
e 103 476
e 103 668
e 103 1123
e 104 268
e 104 1081
e 104 1082
e 104 1284
e 104 1285
e 105 365
e 105 367
e 105 455
e 105 456
e 105 477
e 105 479
e 105 480
e 106 149
e 106 150
e 106 269
e 106 603
e 107 167
e 107 437
e 107 741
e 107 755
e 107 1053
e 108 161
e 108 162
e 108 735
e 108 737
e 108 1063
e 109 110
e 109 112
e 109 147
e 109 845
e 109 907
e 109 908
e 109 927
e 110 111
e 110 845
e 110 908
e 110 926
e 110 932
e 111 113
e 111 497
e 112 147
e 112 893
e 112 927
e 112 939
e 113 275
e 113 497
e 113 606
e 113 608
e 113 907
e 113 908
e 114 115
e 114 116
e 114 234
e 114 319
e 114 959
e 114 1132
e 115 116
e 115 319
e 115 1075
e 116 1075
e 116 1132
e 117 743
e 117 1141
e 117 1253
e 118 652
e 118 1264
e 118 1271
e 119 437
e 119 1047
e 119 1053
e 119 1079
e 119 1082
e 119 1284
e 120 132
e 120 175
e 120 569
e 120 1119
e 121 123
e 121 129
e 121 232
e 121 560
e 121 650
e 121 1120
e 121 1286
e 122 123
e 122 129
e 122 184
e 122 231
e 122 988
e 122 1120
e 123 129
e 123 231
e 123 232
e 124 177
e 124 178
e 124 770
e 124 1121
e 124 1189
e 125 202
e 125 218
e 125 1077
e 126 200
e 126 219
e 126 220
e 126 888
e 127 181
e 127 565
e 127 589
e 127 731
e 128 180
e 128 181
e 128 182
e 128 183
e 128 557
e 129 1120
e 130 185
e 130 188
e 130 447
e 131 174
e 131 188
e 131 559
e 131 565
e 131 566
e 132 175
e 132 551
e 132 571
e 133 134
e 133 135
e 133 211
e 133 221
e 133 998
e 134 135
e 134 138
e 134 696
e 134 1239
e 135 264
e 135 695
e 135 998
e 135 1008
e 135 1239
e 136 137
e 136 676
e 136 693
e 136 1240
e 136 1244
e 137 672
e 137 676
e 137 693
e 138 693
e 138 694
e 139 140
e 139 144
e 139 862
e 139 863
e 139 1124
e 140 861
e 140 862
e 140 1124
e 141 142
e 141 297
e 141 581
e 141 861
e 141 862
e 141 863
e 141 1193
e 142 581
e 142 1189
e 142 1193
e 143 144
e 143 146
e 143 1124
e 143 1125
e 143 1188
e 143 1305
e 144 145
e 144 146
e 144 863
e 144 1124
e 145 146
e 145 863
e 145 1184
e 145 1193
e 145 1200
e 146 1177
e 146 1182
e 146 1187
e 146 1200
e 147 148
e 147 602
e 147 698
e 147 907
e 148 149
e 148 150
e 148 698
e 149 150
e 149 603
e 149 698
e 149 699
e 150 269
e 150 601
e 150 602
e 150 604
e 151 152
e 151 276
e 151 603
e 151 605
e 152 276
e 152 399
e 152 471
e 152 603
e 152 894
e 153 155
e 153 498
e 153 499
e 153 641
e 153 642
e 154 155
e 154 642
e 154 709
e 154 1137
e 154 1311
e 155 281
e 155 499
e 155 642
e 155 709
e 156 215
e 156 342
e 156 1292
e 157 164
e 157 440
e 157 740
e 157 1049
e 157 1054
e 158 159
e 158 160
e 158 745
e 159 160
e 159 166
e 159 437
e 159 743
e 159 746
e 159 784
e 159 889
e 159 890
e 159 1141
e 159 1276
e 160 1046
e 160 1276
e 161 162
e 161 439
e 161 1054
e 161 1056
e 161 1063
e 161 1278
e 162 735
e 163 245
e 163 251
e 163 255
e 163 270
e 163 274
e 163 432
e 163 742
e 163 751
e 163 1280
e 164 736
e 164 740
e 164 1278
e 165 259
e 165 741
e 165 818
e 165 1053
e 165 1062
e 166 168
e 166 743
e 166 754
e 166 757
e 166 890
e 167 741
e 167 1053
e 168 259
e 168 741
e 168 754
e 168 755
e 168 889
e 168 890
e 169 171
e 169 268
e 169 444
e 169 1028
e 169 1059
e 169 1062
e 169 1284
e 170 292
e 170 735
e 170 737
e 170 739
e 170 750
e 170 758
e 171 434
e 171 442
e 171 443
e 171 444
e 171 1028
e 171 1051
e 171 1059
e 171 1297
e 172 176
e 172 553
e 172 733
e 172 1117
e 172 1264
e 172 1272
e 173 556
e 173 562
e 173 730
e 173 731
e 173 732
e 173 1119
e 174 184
e 174 188
e 174 559
e 174 560
e 174 562
e 174 583
e 174 590
e 174 732
e 174 1120
e 175 554
e 175 571
e 175 1272
e 176 179
e 176 563
e 176 567
e 176 585
e 176 587
e 176 733
e 176 1272
e 177 555
e 177 558
e 177 733
e 177 771
e 177 1121
e 178 187
e 178 770
e 178 1065
e 178 1118
e 178 1121
e 179 555
e 179 563
e 179 568
e 179 591
e 179 733
e 180 182
e 180 183
e 180 435
e 180 570
e 180 708
e 180 1273
e 181 182
e 181 557
e 181 566
e 181 568
e 181 589
e 182 568
e 182 570
e 183 435
e 183 557
e 183 1273
e 184 510
e 184 1120
e 185 186
e 185 446
e 185 447
e 186 446
e 186 501
e 186 594
e 187 770
e 187 1065
e 188 435
e 188 447
e 188 557
e 188 566
e 189 192
e 189 494
e 189 1069
e 189 1074
e 190 191
e 190 1071
e 191 325
e 191 683
e 191 1038
e 191 1071
e 191 1084
e 192 494
e 192 517
e 192 1074
e 193 194
e 193 198
e 193 201
e 193 220
e 193 887
e 193 1223
e 193 1224
e 194 225
e 194 798
e 194 799
e 194 887
e 194 1225
e 194 1229
e 195 197
e 195 199
e 195 203
e 195 886
e 195 981
e 196 886
e 196 888
e 196 981
e 196 1066
e 196 1076
e 196 1223
e 196 1227
e 197 199
e 197 203
e 197 884
e 197 885
e 198 220
e 198 888
e 198 1076
e 198 1223
e 199 885
e 199 886
e 200 218
e 200 885
e 200 886
e 201 202
e 201 218
e 201 219
e 201 220
e 201 887
e 202 218
e 202 887
e 202 1077
e 203 630
e 203 632
e 203 884
e 203 981
e 204 217
e 204 426
e 204 427
e 204 529
e 204 673
e 205 534
e 205 537
e 205 539
e 205 1290
e 206 265
e 206 278
e 206 279
e 206 280
e 206 1016
e 206 1301
e 207 280
e 207 298
e 207 299
e 207 716
e 208 295
e 208 720
e 208 721
e 208 1258
e 209 294
e 209 296
e 209 728
e 209 1011
e 209 1259
e 210 722
e 210 997
e 210 1003
e 210 1014
e 210 1016
e 211 221
e 211 993
e 211 998
e 211 1022
e 212 725
e 212 1012
e 212 1014
e 212 1016
e 212 1020
e 212 1023
e 213 387
e 213 419
e 213 727
e 213 1010
e 213 1018
e 213 1261
e 214 233
e 214 359
e 214 360
e 214 726
e 214 727
e 215 536
e 215 1292
e 216 1293
e 216 1294
e 217 426
e 217 427
e 218 219
e 219 220
e 220 888
e 221 998
e 222 223
e 222 962
e 222 967
e 222 969
e 222 972
e 223 224
e 223 225
e 223 226
e 223 972
e 224 225
e 224 887
e 225 798
e 225 887
e 225 972
e 227 228
e 227 240
e 228 235
e 228 240
e 228 1136
e 228 1153
e 229 230
e 229 949
e 229 1152
e 230 954
e 230 1151
e 231 232
e 231 320
e 231 988
e 232 320
e 232 650
e 233 385
e 233 726
e 234 1141
e 235 1135
e 235 1136
e 236 237
e 236 947
e 236 955
e 236 961
e 236 1157
e 237 961
e 237 1148
e 237 1157
e 237 1159
e 238 493
e 238 1152
e 238 1161
e 239 779
e 239 780
e 239 813
e 239 814
e 239 919
e 239 947
e 239 956
e 239 957
e 239 1149
e 239 1150
e 240 949
e 240 954
e 240 959
e 240 960
e 240 1154
e 241 777
e 241 1132
e 241 1134
e 241 1155
e 241 1158
e 241 1159
e 242 795
e 242 1146
e 242 1149
e 243 747
e 243 756
e 243 1026
e 243 1212
e 243 1253
e 244 248
e 244 1026
e 244 1027
e 244 1222
e 244 1253
e 245 254
e 245 255
e 245 1055
e 245 1215
e 245 1216
e 245 1217
e 245 1280
e 246 945
e 246 1027
e 246 1178
e 246 1180
e 246 1210
e 246 1211
e 246 1251
e 247 250
e 247 284
e 247 1051
e 247 1212
e 247 1219
e 247 1254
e 248 1027
e 248 1211
e 248 1222
e 249 272
e 249 1027
e 249 1030
e 249 1210
e 249 1252
e 250 274
e 250 284
e 250 285
e 250 431
e 250 1026
e 250 1212
e 250 1214
e 250 1256
e 251 255
e 251 274
e 251 285
e 251 1215
e 251 1256
e 252 253
e 252 273
e 252 1256
e 253 254
e 253 273
e 253 1213
e 253 1216
e 253 1218
e 254 1216
e 254 1217
e 254 1218
e 255 1215
e 256 285
e 256 1214
e 256 1256
e 257 867
e 257 870
e 257 1165
e 257 1168
e 257 1280
e 258 286
e 258 867
e 258 1167
e 258 1169
e 258 1280
e 259 741
e 259 754
e 259 818
e 260 277
e 260 278
e 260 294
e 260 295
e 260 296
e 260 298
e 260 299
e 260 1258
e 260 1282
e 261 294
e 261 716
e 261 717
e 261 1017
e 261 1019
e 261 1259
e 262 610
e 262 714
e 262 990
e 262 992
e 262 1261
e 263 267
e 263 378
e 264 266
e 264 695
e 264 996
e 264 1008
e 264 1011
e 265 277
e 265 278
e 265 997
e 265 1016
e 265 1275
e 266 295
e 266 721
e 266 728
e 266 1011
e 266 1257
e 267 378
e 267 463
e 267 993
e 267 999
e 267 1001
e 267 1004
e 267 1005
e 268 752
e 268 1284
e 268 1285
e 269 603
e 269 604
e 269 605
e 269 607
e 270 274
e 270 283
e 270 751
e 270 1061
e 270 1219
e 270 1220
e 270 1279
e 271 431
e 271 1219
e 271 1220
e 272 1027
e 272 1252
e 272 1253
e 273 1029
e 273 1211
e 273 1213
e 273 1222
e 273 1256
e 274 285
e 274 431
e 274 1220
e 275 276
e 275 497
e 275 498
e 275 606
e 276 399
e 276 498
e 276 605
e 276 606
e 276 641
e 276 1237
e 277 278
e 277 1275
e 277 1282
e 278 280
e 278 298
e 279 280
e 279 717
e 279 718
e 279 1301
e 280 298
e 280 716
e 280 717
e 281 282
e 281 703
e 281 709
e 282 701
e 282 703
e 282 906
e 283 492
e 283 1061
e 283 1219
e 283 1254
e 285 1214
e 285 1256
e 286 290
e 286 292
e 286 445
e 286 867
e 286 1164
e 286 1165
e 286 1167
e 287 292
e 287 293
e 287 347
e 287 348
e 287 868
e 287 869
e 287 1128
e 287 1251
e 288 289
e 288 348
e 288 761
e 288 775
e 288 868
e 288 1187
e 288 1188
e 288 1305
e 289 761
e 289 868
e 289 869
e 290 1055
e 290 1130
e 290 1164
e 290 1167
e 291 1055
e 291 1129
e 291 1130
e 291 1163
e 291 1213
e 291 1218
e 292 347
e 292 445
e 292 750
e 292 758
e 292 873
e 292 1165
e 292 1166
e 292 1306
e 293 1128
e 293 1129
e 293 1163
e 293 1213
e 294 296
e 294 299
e 294 300
e 294 716
e 295 296
e 295 721
e 295 1257
e 295 1258
e 296 1257
e 297 600
e 297 861
e 297 1138
e 298 299
e 299 300
e 299 716
e 300 716
e 301 318
e 301 613
e 301 618
e 301 619
e 301 920
e 302 310
e 302 614
e 302 933
e 302 1024
e 302 1122
e 303 312
e 303 313
e 303 612
e 303 625
e 303 626
e 304 305
e 304 306
e 304 308
e 304 311
e 304 617
e 304 620
e 304 626
e 305 309
e 305 615
e 305 620
e 305 1122
e 306 309
e 306 311
e 306 622
e 306 623
e 307 311
e 307 621
e 307 622
e 307 624
e 308 313
e 308 315
e 308 611
e 308 620
e 308 626
e 309 623
e 309 910
e 309 917
e 309 1122
e 309 1204
e 310 314
e 310 933
e 310 1122
e 311 617
e 311 622
e 311 624
e 312 316
e 312 612
e 312 616
e 312 619
e 312 625
e 313 611
e 313 618
e 313 625
e 313 626
e 314 315
e 314 615
e 314 933
e 314 1122
e 315 611
e 315 615
e 315 620
e 315 928
e 316 317
e 316 612
e 316 616
e 316 668
e 316 1123
e 317 613
e 317 616
e 317 619
e 317 659
e 317 668
e 318 613
e 318 619
e 320 515
e 320 596
e 320 793
e 320 979
e 320 988
e 321 451
e 321 524
e 321 673
e 321 1095
e 322 323
e 322 451
e 322 1095
e 322 1096
e 323 451
e 323 674
e 323 1096
e 324 519
e 324 1036
e 324 1037
e 324 1040
e 324 1067
e 324 1209
e 325 683
e 325 1039
e 325 1071
e 325 1073
e 326 330
e 326 331
e 326 513
e 326 514
e 326 595
e 326 1172
e 327 329
e 327 628
e 327 629
e 327 631
e 327 633
e 327 635
e 327 1172
e 328 330
e 328 331
e 328 630
e 328 1174
e 328 1175
e 329 628
e 329 629
e 329 632
e 329 634
e 330 1172
e 330 1173
e 330 1175
e 331 630
e 331 975
e 332 333
e 332 336
e 332 665
e 332 697
e 332 895
e 332 991
e 333 466
e 333 665
e 333 1261
e 334 337
e 334 700
e 335 336
e 335 337
e 335 609
e 335 697
e 335 893
e 335 895
e 336 697
e 336 895
e 337 609
e 337 610
e 337 700
e 338 340
e 338 635
e 338 824
e 338 827
e 339 341
e 339 343
e 339 896
e 339 898
e 339 899
e 340 633
e 340 635
e 340 827
e 341 342
e 341 343
e 341 450
e 342 450
e 342 1292
e 343 896
e 343 1295
e 344 379
e 344 380
e 344 402
e 344 403
e 344 461
e 344 663
e 345 346
e 345 356
e 345 366
e 345 375
e 345 395
e 345 454
e 346 355
e 346 356
e 346 361
e 346 375
e 347 348
e 347 1306
e 348 351
e 348 775
e 348 868
e 348 1306
e 349 350
e 349 352
e 349 353
e 349 691
e 349 775
e 349 1307
e 350 353
e 350 691
e 350 1036
e 350 1306
e 351 353
e 351 354
e 351 775
e 351 776
e 352 353
e 352 354
e 352 775
e 352 776
e 353 354
e 353 1306
e 354 776
e 355 356
e 355 361
e 355 636
e 355 657
e 355 664
e 356 454
e 356 457
e 356 458
e 357 358
e 357 371
e 357 398
e 357 422
e 357 658
e 358 362
e 358 364
e 358 365
e 358 371
e 358 658
e 359 360
e 359 385
e 359 464
e 360 464
e 360 656
e 361 637
e 361 657
e 362 363
e 362 364
e 362 365
e 362 371
e 362 413
e 362 1025
e 362 1032
e 363 381
e 363 413
e 363 1032
e 364 365
e 365 367
e 365 658
e 366 367
e 366 395
e 366 454
e 366 479
e 366 658
e 367 479
e 367 658
e 368 390
e 368 405
e 368 452
e 368 665
e 368 697
e 369 404
e 369 418
e 369 656
e 369 657
e 369 664
e 370 371
e 370 393
e 370 413
e 370 422
e 370 462
e 371 413
e 372 374
e 372 463
e 372 670
e 372 726
e 373 378
e 373 384
e 373 392
e 373 416
e 374 385
e 374 670
e 374 726
e 375 395
e 375 412
e 375 637
e 376 418
e 376 460
e 376 475
e 376 639
e 376 654
e 377 383
e 377 390
e 377 405
e 377 414
e 377 424
e 377 453
e 377 468
e 378 416
e 378 463
e 379 380
e 379 461
e 379 661
e 380 403
e 380 411
e 380 660
e 380 667
e 381 396
e 381 410
e 381 667
e 381 1032
e 382 389
e 382 460
e 382 653
e 382 662
e 383 424
e 383 425
e 383 453
e 383 478
e 383 661
e 384 392
e 384 621
e 384 623
e 385 464
e 385 670
e 386 394
e 386 409
e 386 416
e 386 463
e 386 669
e 386 670
e 387 391
e 387 418
e 387 419
e 387 421
e 387 475
e 388 423
e 388 466
e 388 467
e 388 639
e 388 640
e 388 662
e 389 453
e 389 465
e 389 662
e 390 405
e 390 414
e 390 468
e 390 697
e 391 421
e 391 475
e 391 639
e 391 640
e 392 394
e 392 416
e 392 621
e 393 413
e 393 462
e 393 668
e 394 407
e 394 409
e 394 416
e 394 621
e 394 1123
e 395 412
e 395 658
e 395 666
e 396 410
e 396 413
e 396 659
e 397 415
e 397 459
e 397 636
e 397 654
e 398 408
e 398 422
e 398 658
e 398 666
e 399 436
e 399 447
e 399 471
e 399 472
e 399 1237
e 399 1238
e 400 435
e 400 436
e 400 708
e 400 1238
e 400 1310
e 401 402
e 401 456
e 401 477
e 401 663
e 402 403
e 402 477
e 402 480
e 402 663
e 403 480
e 403 667
e 403 1032
e 404 657
e 404 664
e 405 420
e 405 452
e 405 453
e 405 465
e 406 408
e 406 422
e 406 476
e 407 408
e 407 409
e 407 666
e 407 669
e 408 422
e 408 666
e 409 669
e 410 411
e 410 659
e 411 660
e 411 667
e 412 637
e 412 638
e 412 666
e 412 669
e 413 668
e 414 468
e 415 417
e 415 636
e 415 654
e 415 664
e 417 418
e 417 654
e 417 664
e 418 475
e 418 654
e 418 656
e 418 664
e 418 727
e 419 421
e 420 452
e 420 465
e 420 474
e 421 466
e 421 1261
e 422 462
e 423 452
e 423 465
e 423 467
e 423 474
e 423 662
e 423 665
e 424 425
e 424 468
e 424 866
e 424 878
e 424 921
e 424 940
e 425 660
e 425 661
e 425 878
e 426 427
e 426 673
e 427 429
e 427 525
e 427 526
e 427 527
e 427 529
e 427 1095
e 428 530
e 428 671
e 428 676
e 428 850
e 428 852
e 428 1289
e 429 1095
e 430 530
e 430 531
e 430 532
e 431 1219
e 431 1220
e 432 742
e 432 751
e 432 1279
e 432 1280
e 433 441
e 433 1052
e 433 1057
e 433 1058
e 433 1061
e 433 1279
e 433 1283
e 434 442
e 434 1048
e 434 1051
e 434 1058
e 435 436
e 435 447
e 435 557
e 435 708
e 435 1273
e 436 447
e 436 1238
e 437 438
e 437 746
e 437 755
e 437 889
e 437 1047
e 437 1053
e 437 1064
e 438 1047
e 438 1050
e 438 1060
e 438 1064
e 438 1078
e 439 443
e 439 1056
e 439 1063
e 439 1277
e 440 752
e 440 1049
e 440 1054
e 440 1056
e 441 737
e 441 758
e 441 1052
e 441 1057
e 441 1063
e 442 1058
e 442 1297
e 443 1059
e 443 1063
e 443 1297
e 444 1059
e 445 873
e 445 1164
e 446 447
e 446 472
e 446 594
e 446 891
e 447 472
e 448 472
e 448 473
e 448 891
e 448 1142
e 449 523
e 449 525
e 449 527
e 449 1289
e 449 1296
e 450 528
e 450 1090
e 450 1291
e 450 1292
e 450 1295
e 451 524
e 451 674
e 451 1095
e 452 474
e 453 465
e 453 478
e 453 653
e 454 455
e 454 479
e 455 456
e 455 458
e 455 479
e 456 458
e 456 459
e 456 477
e 456 663
e 457 458
e 457 636
e 458 459
e 459 636
e 459 654
e 459 663
e 460 639
e 460 653
e 460 662
e 460 663
e 461 478
e 461 653
e 461 661
e 461 663
e 462 476
e 462 668
e 463 726
e 463 999
e 463 1001
e 464 638
e 464 656
e 464 670
e 465 474
e 465 662
e 466 467
e 466 640
e 466 665
e 466 1261
e 467 665
e 468 893
e 468 921
e 468 939
e 468 1300
e 469 577
e 469 580
e 469 581
e 469 643
e 469 644
e 469 646
e 469 705
e 469 901
e 469 1138
e 470 651
e 470 1072
e 471 472
e 471 473
e 471 892
e 471 894
e 472 891
e 473 892
e 473 1142
e 477 480
e 478 653
e 478 661
e 480 1025
e 481 768
e 481 769
e 481 770
e 481 1184
e 481 1189
e 481 1193
e 481 1200
e 481 1201
e 482 483
e 482 806
e 482 816
e 482 817
e 482 1287
e 483 484
e 483 485
e 483 495
e 483 817
e 483 1287
e 484 485
e 484 1287
e 485 1170
e 485 1255
e 485 1287
e 486 487
e 486 796
e 486 1255
e 486 1319
e 486 1321
e 487 796
e 487 809
e 487 810
e 487 1321
e 488 811
e 488 1317
e 488 1318
e 489 491
e 489 777
e 489 1131
e 489 1160
e 490 1133
e 490 1143
e 490 1144
e 490 1160
e 491 777
e 491 778
e 491 1134
e 491 1143
e 492 1051
e 492 1061
e 492 1254
e 493 956
e 493 958
e 493 1161
e 494 517
e 494 518
e 494 519
e 494 1069
e 494 1263
e 495 496
e 495 521
e 495 817
e 495 1255
e 495 1319
e 496 807
e 496 816
e 496 1319
e 497 498
e 498 499
e 500 503
e 500 786
e 500 985
e 501 510
e 501 594
e 501 597
e 501 988
e 502 509
e 502 647
e 502 734
e 502 981
e 502 984
e 502 1065
e 502 1066
e 502 1233
e 502 1236
e 503 512
e 503 592
e 503 791
e 503 985
e 503 986
e 504 514
e 504 595
e 504 792
e 505 974
e 505 1094
e 505 1099
e 505 1232
e 505 1236
e 505 1248
e 506 507
e 506 974
e 506 1102
e 507 839
e 507 974
e 507 980
e 507 987
e 507 1102
e 507 1208
e 508 511
e 508 512
e 508 513
e 508 514
e 508 592
e 508 593
e 509 984
e 509 1233
e 509 1250
e 510 988
e 511 512
e 511 978
e 512 592
e 512 593
e 512 978
e 512 986
e 513 514
e 514 595
e 515 516
e 515 793
e 515 978
e 515 979
e 516 594
e 516 793
e 516 978
e 517 520
e 517 1074
e 517 1263
e 518 519
e 518 691
e 518 1036
e 518 1263
e 519 1036
e 519 1037
e 519 1069
e 520 651
e 520 1033
e 521 1319
e 522 524
e 522 671
e 522 673
e 522 674
e 522 675
e 522 689
e 522 1291
e 523 530
e 523 531
e 523 534
e 523 1289
e 523 1290
e 524 673
e 524 674
e 525 526
e 525 527
e 525 1296
e 526 1095
e 526 1296
e 527 529
e 527 533
e 527 534
e 528 536
e 528 538
e 528 1090
e 528 1292
e 529 533
e 529 673
e 529 1090
e 530 532
e 530 676
e 530 1289
e 531 532
e 531 672
e 531 1290
e 531 1293
e 531 1294
e 532 672
e 532 676
e 533 534
e 533 538
e 533 1090
e 534 538
e 534 539
e 535 537
e 535 1290
e 536 539
e 537 1290
e 538 539
e 538 1090
e 540 582
e 540 644
e 540 646
e 540 704
e 540 705
e 540 711
e 541 542
e 541 574
e 541 575
e 541 707
e 542 575
e 542 578
e 542 702
e 543 544
e 543 547
e 543 549
e 544 545
e 544 546
e 544 547
e 544 549
e 544 832
e 545 832
e 546 548
e 546 549
e 546 832
e 547 549
e 547 550
e 547 968
e 547 970
e 548 549
e 548 832
e 548 1266
e 549 550
e 549 1266
e 550 677
e 550 970
e 550 1266
e 551 571
e 551 1286
e 552 553
e 552 733
e 552 1118
e 552 1121
e 553 733
e 553 1117
e 553 1118
e 554 569
e 554 585
e 554 1272
e 555 558
e 555 568
e 555 570
e 555 733
e 556 560
e 556 732
e 556 1119
e 556 1286
e 557 566
e 558 570
e 558 710
e 559 565
e 559 572
e 559 590
e 560 732
e 560 1120
e 560 1286
e 561 564
e 561 589
e 561 730
e 561 731
e 562 583
e 562 731
e 562 732
e 563 586
e 563 587
e 563 588
e 563 591
e 564 568
e 564 586
e 564 589
e 564 591
e 565 566
e 565 731
e 567 569
e 567 584
e 567 585
e 567 586
e 568 570
e 568 591
e 569 584
e 569 586
e 569 1119
e 570 708
e 570 710
e 571 1281
e 571 1286
e 572 583
e 572 590
e 572 731
e 573 576
e 573 582
e 573 705
e 573 711
e 573 902
e 574 576
e 574 578
e 574 707
e 574 711
e 575 577
e 575 702
e 575 707
e 575 906
e 575 1140
e 576 578
e 576 711
e 576 902
e 576 1137
e 577 643
e 577 707
e 577 901
e 577 1140
e 578 702
e 578 1137
e 578 1139
e 579 701
e 579 702
e 579 904
e 579 906
e 580 581
e 580 705
e 580 706
e 580 710
e 580 771
e 581 771
e 581 1138
e 581 1189
e 582 705
e 582 711
e 583 590
e 583 731
e 584 585
e 585 1272
e 586 587
e 586 588
e 586 591
e 586 730
e 587 588
e 592 593
e 592 792
e 594 597
e 594 793
e 594 978
e 595 790
e 595 792
e 595 975
e 596 650
e 596 794
e 596 979
e 596 1106
e 598 599
e 598 600
e 598 692
e 598 861
e 598 880
e 598 881
e 598 1124
e 598 1125
e 599 600
e 600 861
e 601 602
e 601 604
e 602 608
e 602 907
e 603 605
e 603 894
e 604 606
e 604 607
e 604 608
e 605 606
e 605 607
e 606 607
e 606 608
e 609 698
e 609 699
e 609 700
e 609 893
e 610 895
e 611 618
e 611 922
e 611 928
e 612 617
e 612 624
e 612 626
e 612 1123
e 613 619
e 613 659
e 614 805
e 614 849
e 614 941
e 614 1024
e 615 620
e 615 1122
e 616 619
e 617 624
e 617 626
e 618 619
e 618 625
e 618 930
e 619 625
e 621 622
e 621 623
e 621 624
e 621 1123
e 622 623
e 623 910
e 624 1123
e 627 983
e 627 1091
e 627 1274
e 627 1281
e 627 1288
e 628 631
e 628 634
e 629 635
e 629 967
e 630 632
e 630 634
e 630 975
e 630 981
e 630 1174
e 631 634
e 631 1172
e 631 1173
e 632 634
e 633 635
e 633 827
e 633 1172
e 634 1174
e 636 664
e 637 638
e 637 657
e 638 657
e 638 669
e 638 670
e 639 640
e 639 662
e 641 642
e 641 1237
e 641 1310
e 641 1311
e 642 1311
e 643 645
e 643 646
e 643 707
e 644 646
e 644 705
e 645 646
e 645 704
e 645 707
e 647 648
e 647 1065
e 647 1066
e 647 1185
e 648 1066
e 648 1185
e 649 1044
e 649 1071
e 649 1209
e 651 681
e 651 1072
e 651 1074
e 652 1264
e 652 1265
e 652 1271
e 652 1274
e 653 663
e 654 663
e 655 712
e 655 1104
e 655 1312
e 655 1313
e 656 657
e 656 727
e 659 660
e 659 668
e 660 661
e 660 878
e 660 938
e 666 669
e 667 1032
e 669 670
e 671 674
e 671 679
e 671 689
e 671 852
e 671 854
e 671 855
e 671 1289
e 672 676
e 672 1293
e 672 1294
e 673 1090
e 673 1291
e 674 1096
e 674 1289
e 674 1296
e 675 689
e 675 896
e 675 1291
e 676 695
e 676 850
e 676 1105
e 676 1240
e 677 678
e 677 970
e 677 1262
e 677 1266
e 677 1267
e 677 1270
e 678 1267
e 679 680
e 679 851
e 679 852
e 679 853
e 679 855
e 679 856
e 679 858
e 680 713
e 680 850
e 680 851
e 680 856
e 680 1308
e 680 1309
e 681 687
e 681 688
e 681 1034
e 681 1035
e 681 1072
e 682 688
e 682 1041
e 682 1072
e 683 684
e 683 688
e 683 1038
e 683 1039
e 684 685
e 684 688
e 684 1035
e 684 1039
e 684 1073
e 685 686
e 685 1035
e 685 1073
e 686 687
e 686 1035
e 686 1073
e 687 1034
e 687 1073
e 688 1035
e 688 1038
e 688 1041
e 688 1072
e 689 854
e 689 896
e 690 880
e 690 881
e 690 1263
e 691 882
e 691 1036
e 691 1263
e 692 880
e 692 882
e 692 883
e 692 1307
e 693 694
e 694 696
e 694 1243
e 694 1244
e 695 715
e 695 996
e 695 1105
e 695 1240
e 695 1241
e 696 1239
e 696 1243
e 697 893
e 698 699
e 698 893
e 699 700
e 699 894
e 700 894
e 701 703
e 701 905
e 701 906
e 702 904
e 702 906
e 702 1139
e 703 709
e 703 903
e 704 707
e 704 711
e 705 706
e 705 902
e 706 708
e 706 710
e 706 902
e 706 1137
e 706 1310
e 707 711
e 708 710
e 708 1310
e 709 903
e 709 1137
e 709 1139
e 710 771
e 712 1103
e 712 1104
e 712 1312
e 713 714
e 713 850
e 713 892
e 713 1103
e 713 1105
e 713 1308
e 714 715
e 714 892
e 714 990
e 714 1009
e 714 1103
e 714 1312
e 715 996
e 715 1011
e 715 1105
e 715 1312
e 715 1313
e 716 717
e 717 718
e 718 719
e 718 729
e 718 1009
e 718 1019
e 719 729
e 719 1301
e 720 721
e 720 1006
e 720 1007
e 720 1015
e 720 1258
e 720 1275
e 721 1006
e 721 1008
e 722 723
e 722 997
e 722 1003
e 722 1015
e 722 1083
e 723 724
e 723 1003
e 723 1007
e 723 1083
e 724 993
e 724 1003
e 724 1004
e 724 1005
e 724 1007
e 724 1022
e 725 729
e 725 989
e 725 994
e 725 1020
e 725 1021
e 725 1301
e 726 727
e 726 999
e 726 1012
e 726 1013
e 726 1260
e 727 1010
e 727 1260
e 728 1011
e 728 1257
e 729 1009
e 729 1021
e 729 1261
e 730 731
e 730 1119
e 733 1121
e 734 1065
e 734 1117
e 734 1118
e 734 1236
e 734 1264
e 734 1271
e 735 736
e 735 737
e 735 738
e 735 739
e 736 740
e 737 758
e 738 739
e 738 740
e 738 748
e 738 749
e 738 1046
e 739 744
e 739 748
e 739 750
e 740 749
e 741 755
e 741 1053
e 742 751
e 743 756
e 743 757
e 743 1141
e 743 1253
e 744 748
e 744 750
e 744 1046
e 744 1276
e 744 1306
e 745 746
e 745 1045
e 746 1045
e 746 1064
e 747 753
e 747 754
e 747 756
e 747 757
e 748 1046
e 749 1046
e 750 1306
e 751 1279
e 752 1056
e 752 1059
e 752 1277
e 752 1285
e 753 754
e 753 1212
e 754 757
e 755 889
e 756 757
e 756 1253
e 758 1052
e 758 1166
e 759 760
e 759 764
e 759 766
e 759 768
e 759 1186
e 760 762
e 760 766
e 760 768
e 760 1194
e 760 1196
e 761 762
e 761 767
e 761 869
e 761 1187
e 761 1190
e 761 1202
e 762 766
e 762 767
e 762 1066
e 762 1183
e 762 1185
e 762 1190
e 762 1194
e 762 1197
e 763 764
e 763 766
e 763 1183
e 763 1185
e 763 1191
e 764 766
e 764 1185
e 764 1186
e 764 1201
e 765 869
e 765 1180
e 765 1181
e 765 1198
e 765 1202
e 765 1251
e 766 1183
e 766 1191
e 767 1066
e 767 1192
e 767 1199
e 767 1202
e 768 769
e 768 1186
e 768 1196
e 768 1201
e 769 1177
e 769 1182
e 769 1190
e 769 1196
e 769 1200
e 770 1065
e 770 1189
e 770 1201
e 771 1189
e 772 773
e 772 774
e 772 1210
e 772 1228
e 773 774
e 773 945
e 773 1226
e 773 1227
e 773 1228
e 774 945
e 774 1210
e 775 776
e 775 1305
e 775 1307
e 777 1131
e 777 1132
e 778 1134
e 778 1143
e 779 814
e 779 919
e 779 1135
e 780 812
e 780 813
e 780 1135
e 780 1149
e 781 782
e 781 948
e 781 950
e 781 951
e 782 948
e 782 1133
e 782 1303
e 783 795
e 783 1135
e 783 1147
e 784 1073
e 784 1276
e 784 1306
e 785 977
e 785 978
e 785 979
e 785 982
e 785 1106
e 786 787
e 786 788
e 786 985
e 786 987
e 786 1208
e 787 788
e 787 790
e 787 791
e 788 790
e 788 975
e 788 981
e 788 1101
e 788 1102
e 788 1208
e 788 1233
e 788 1250
e 789 984
e 789 1088
e 789 1232
e 789 1248
e 789 1250
e 790 791
e 790 792
e 790 975
e 791 792
e 793 988
e 794 983
e 794 1106
e 795 812
e 795 1135
e 795 1149
e 796 808
e 796 809
e 796 1319
e 796 1320
e 797 798
e 797 962
e 797 1126
e 797 1127
e 797 1170
e 798 799
e 798 972
e 798 1127
e 799 810
e 799 811
e 799 1225
e 799 1317
e 800 801
e 800 802
e 800 804
e 801 804
e 801 910
e 801 913
e 801 914
e 801 915
e 802 804
e 802 912
e 802 916
e 802 1203
e 802 1205
e 803 805
e 803 911
e 803 912
e 803 1203
e 804 914
e 804 918
e 804 1203
e 804 1206
e 805 849
e 805 879
e 805 911
e 805 1024
e 805 1122
e 805 1203
e 805 1204
e 806 807
e 806 816
e 806 1170
e 806 1171
e 806 1287
e 806 1314
e 807 808
e 807 816
e 807 838
e 807 1171
e 807 1319
e 808 837
e 808 838
e 808 1107
e 808 1262
e 808 1319
e 808 1320
e 809 810
e 809 811
e 809 1316
e 810 811
e 810 1127
e 810 1321
e 811 1316
e 811 1317
e 811 1318
e 812 1135
e 812 1149
e 813 1135
e 813 1150
e 814 815
e 814 956
e 814 1135
e 815 956
e 815 1135
e 815 1161
e 816 817
e 818 1028
e 818 1062
e 819 820
e 819 821
e 819 823
e 819 826
e 819 828
e 820 823
e 820 824
e 820 826
e 820 829
e 821 822
e 821 823
e 821 828
e 822 823
e 822 825
e 822 827
e 822 828
e 822 829
e 823 829
e 824 827
e 824 829
e 824 831
e 825 826
e 825 827
e 825 828
e 825 854
e 825 856
e 825 857
e 826 828
e 826 854
e 826 896
e 826 897
e 827 829
e 827 857
e 827 1309
e 830 831
e 832 1266
e 833 835
e 833 836
e 833 837
e 833 966
e 833 968
e 833 969
e 833 970
e 833 973
e 834 836
e 834 944
e 834 963
e 834 966
e 835 836
e 835 838
e 835 962
e 835 963
e 835 969
e 835 1171
e 835 1314
e 836 963
e 836 966
e 837 838
e 837 963
e 837 966
e 837 970
e 837 1262
e 838 963
e 838 1171
e 839 980
e 839 1097
e 839 1176
e 839 1234
e 840 934
e 840 1300
e 841 844
e 841 877
e 841 934
e 842 864
e 842 875
e 842 943
e 842 1298
e 842 1299
e 843 859
e 843 860
e 843 865
e 843 875
e 843 923
e 844 859
e 844 860
e 844 864
e 844 877
e 844 934
e 844 937
e 844 942
e 844 943
e 845 926
e 845 927
e 845 929
e 846 848
e 846 876
e 846 942
e 847 848
e 847 849
e 847 879
e 847 1298
e 847 1299
e 848 876
e 848 926
e 848 932
e 849 879
e 849 928
e 849 941
e 849 1299
e 850 851
e 850 852
e 850 853
e 850 1105
e 851 853
e 851 858
e 852 853
e 853 858
e 854 855
e 854 856
e 854 896
e 855 856
e 856 857
e 856 1309
e 857 1309
e 859 860
e 859 864
e 859 865
e 860 923
e 860 937
e 861 862
e 861 1124
e 862 863
e 863 1193
e 864 865
e 864 875
e 864 943
e 865 875
e 866 878
e 866 925
e 866 931
e 866 940
e 867 870
e 867 871
e 867 1165
e 867 1280
e 868 869
e 869 1202
e 869 1251
e 870 871
e 870 1165
e 871 1165
e 872 874
e 872 1128
e 873 874
e 873 1128
e 873 1164
e 874 1128
e 875 922
e 875 928
e 875 1299
e 876 926
e 876 929
e 877 942
e 878 924
e 878 938
e 879 909
e 879 911
e 880 881
e 880 882
e 880 1263
e 882 883
e 882 1263
e 882 1307
e 883 1307
e 884 887
e 884 1077
e 885 886
e 886 981
e 887 1077
e 888 1076
e 889 890
e 891 892
e 891 1142
e 891 1308
e 892 1142
e 892 1308
e 895 992
e 896 897
e 896 898
e 896 900
e 896 1291
e 897 900
e 898 899
e 898 900
e 899 900
e 901 1138
e 901 1322
e 902 1137
e 903 905
e 903 1139
e 904 905
e 904 1139
e 906 1140
e 907 908
e 909 911
e 909 916
e 909 1205
e 910 913
e 910 917
e 911 912
e 911 916
e 912 916
e 912 1203
e 913 915
e 913 917
e 913 918
e 913 1206
e 914 915
e 914 1206
e 915 1206
e 916 1205
e 917 918
e 917 1204
e 918 1203
e 918 1204
e 918 1206
e 919 1135
e 920 924
e 920 930
e 921 923
e 921 934
e 921 936
e 921 937
e 921 940
e 921 1300
e 922 928
e 922 930
e 922 935
e 923 935
e 923 936
e 923 937
e 924 925
e 924 930
e 924 938
e 925 930
e 925 931
e 925 935
e 925 936
e 926 929
e 926 932
e 927 934
e 927 939
e 927 1300
e 928 933
e 928 941
e 929 934
e 930 935
e 931 936
e 931 940
e 933 941
e 934 937
e 934 1300
e 935 936
e 936 940
e 939 1300
e 942 943
e 944 963
e 944 966
e 945 1178
e 945 1179
e 945 1192
e 945 1195
e 945 1198
e 945 1227
e 946 1229
e 947 955
e 947 957
e 947 961
e 947 1145
e 947 1149
e 948 950
e 948 952
e 948 1133
e 948 1143
e 949 954
e 949 1152
e 949 1153
e 950 951
e 950 952
e 951 952
e 951 953
e 952 953
e 952 1143
e 954 1132
e 954 1154
e 954 1155
e 955 957
e 955 1157
e 956 958
e 956 1151
e 956 1161
e 957 1151
e 957 1157
e 958 1161
e 959 960
e 959 1132
e 959 1154
e 961 1145
e 961 1148
e 962 969
e 962 972
e 962 1126
e 962 1314
e 963 966
e 964 967
e 964 969
e 964 971
e 964 973
e 965 967
e 965 968
e 965 971
e 965 973
e 967 968
e 967 969
e 967 971
e 968 970
e 968 973
e 969 973
e 970 1262
e 971 973
e 974 1093
e 974 1102
e 974 1176
e 974 1248
e 975 981
e 976 977
e 976 982
e 976 986
e 976 1114
e 976 1207
e 977 978
e 977 986
e 978 979
e 978 986
e 979 1106
e 980 987
e 980 1097
e 980 1115
e 980 1235
e 981 1066
e 981 1233
e 982 1113
e 982 1207
e 982 1230
e 982 1247
e 983 1091
e 983 1113
e 983 1245
e 983 1247
e 983 1286
e 983 1288
e 984 1232
e 984 1236
e 985 987
e 987 1115
e 987 1208
e 989 1010
e 989 1021
e 989 1260
e 990 1009
e 991 992
e 991 1261
e 992 1261
e 993 1004
e 994 1012
e 994 1023
e 994 1260
e 995 999
e 995 1000
e 995 1012
e 995 1013
e 995 1014
e 996 1011
e 997 1015
e 997 1016
e 997 1275
e 998 1006
e 998 1008
e 998 1022
e 999 1000
e 999 1001
e 999 1005
e 999 1013
e 1000 1002
e 1000 1003
e 1000 1005
e 1000 1014
e 1002 1003
e 1003 1005
e 1003 1014
e 1004 1005
e 1006 1007
e 1006 1008
e 1006 1022
e 1007 1015
e 1007 1022
e 1007 1083
e 1009 1011
e 1009 1017
e 1009 1019
e 1009 1261
e 1010 1018
e 1011 1017
e 1011 1259
e 1012 1013
e 1012 1023
e 1012 1260
e 1014 1016
e 1015 1083
e 1015 1275
e 1016 1020
e 1016 1301
e 1017 1019
e 1017 1259
e 1018 1021
e 1018 1261
e 1020 1301
e 1024 1122
e 1025 1032
e 1026 1029
e 1026 1212
e 1026 1222
e 1026 1253
e 1026 1256
e 1027 1030
e 1027 1210
e 1027 1211
e 1027 1253
e 1028 1031
e 1028 1051
e 1028 1062
e 1028 1212
e 1029 1222
e 1029 1256
e 1030 1210
e 1031 1212
e 1033 1073
e 1034 1073
e 1036 1209
e 1036 1306
e 1037 1067
e 1037 1069
e 1038 1041
e 1038 1069
e 1038 1084
e 1039 1073
e 1040 1044
e 1040 1067
e 1040 1209
e 1042 1043
e 1042 1068
e 1042 1084
e 1043 1044
e 1043 1068
e 1043 1070
e 1044 1067
e 1044 1070
e 1044 1209
e 1045 1050
e 1045 1060
e 1045 1064
e 1046 1276
e 1047 1078
e 1047 1079
e 1048 1051
e 1048 1058
e 1049 1060
e 1049 1080
e 1049 1081
e 1049 1285
e 1050 1060
e 1050 1064
e 1051 1058
e 1051 1212
e 1051 1254
e 1052 1166
e 1052 1283
e 1053 1062
e 1053 1284
e 1054 1056
e 1054 1278
e 1055 1130
e 1055 1167
e 1055 1169
e 1055 1217
e 1055 1218
e 1055 1280
e 1056 1277
e 1057 1058
e 1057 1063
e 1057 1297
e 1058 1061
e 1058 1297
e 1059 1277
e 1060 1078
e 1061 1279
e 1063 1297
e 1065 1118
e 1065 1201
e 1066 1185
e 1066 1192
e 1066 1227
e 1067 1068
e 1067 1069
e 1067 1070
e 1068 1069
e 1068 1070
e 1068 1084
e 1069 1084
e 1071 1073
e 1071 1209
e 1071 1306
e 1076 1223
e 1078 1079
e 1078 1080
e 1079 1080
e 1079 1082
e 1080 1081
e 1081 1082
e 1081 1285
e 1082 1284
e 1085 1086
e 1085 1116
e 1085 1162
e 1085 1231
e 1085 1234
e 1085 1246
e 1086 1098
e 1086 1234
e 1086 1246
e 1087 1092
e 1087 1093
e 1087 1098
e 1087 1176
e 1087 1234
e 1088 1101
e 1088 1248
e 1088 1249
e 1089 1098
e 1089 1100
e 1090 1291
e 1091 1245
e 1091 1246
e 1092 1093
e 1092 1094
e 1092 1098
e 1093 1094
e 1094 1099
e 1095 1096
e 1095 1296
e 1096 1296
e 1097 1162
e 1097 1234
e 1097 1235
e 1098 1234
e 1099 1100
e 1099 1236
e 1101 1102
e 1101 1248
e 1101 1249
e 1101 1250
e 1102 1208
e 1102 1248
e 1103 1104
e 1103 1105
e 1103 1312
e 1103 1313
e 1104 1313
e 1105 1313
e 1106 1247
e 1107 1108
e 1107 1110
e 1107 1111
e 1107 1112
e 1107 1262
e 1107 1304
e 1108 1109
e 1108 1110
e 1108 1269
e 1108 1302
e 1108 1304
e 1109 1112
e 1109 1304
e 1110 1112
e 1111 1303
e 1111 1304
e 1112 1304
e 1113 1230
e 1113 1245
e 1114 1115
e 1114 1116
e 1114 1235
e 1115 1235
e 1116 1162
e 1116 1231
e 1116 1235
e 1117 1118
e 1117 1264
e 1122 1204
e 1124 1125
e 1125 1305
e 1125 1307
e 1126 1170
e 1126 1314
e 1127 1170
e 1127 1321
e 1128 1163
e 1129 1163
e 1129 1213
e 1130 1163
e 1130 1164
e 1131 1132
e 1131 1160
e 1132 1154
e 1132 1155
e 1133 1143
e 1133 1144
e 1134 1145
e 1134 1148
e 1134 1158
e 1135 1136
e 1135 1141
e 1135 1150
e 1135 1161
e 1137 1311
e 1138 1322
e 1140 1322
e 1143 1160
e 1146 1147
e 1148 1158
e 1148 1159
e 1151 1155
e 1151 1156
e 1151 1157
e 1152 1153
e 1152 1161
e 1155 1156
e 1155 1159
e 1156 1157
e 1156 1159
e 1158 1159
e 1162 1235
e 1165 1166
e 1165 1168
e 1166 1168
e 1167 1169
e 1168 1280
e 1168 1283
e 1169 1280
e 1170 1287
e 1170 1321
e 1171 1314
e 1172 1173
e 1173 1174
e 1173 1175
e 1174 1175
e 1177 1182
e 1177 1200
e 1178 1179
e 1178 1180
e 1179 1180
e 1179 1181
e 1179 1198
e 1180 1181
e 1180 1251
e 1181 1198
e 1182 1187
e 1182 1190
e 1183 1185
e 1183 1191
e 1184 1193
e 1184 1200
e 1185 1201
e 1186 1201
e 1187 1188
e 1187 1190
e 1188 1305
e 1189 1193
e 1190 1196
e 1190 1197
e 1192 1195
e 1192 1199
e 1192 1227
e 1194 1196
e 1194 1197
e 1195 1198
e 1195 1199
e 1195 1202
e 1196 1197
e 1198 1202
e 1199 1202
e 1203 1204
e 1207 1230
e 1207 1231
e 1207 1245
e 1209 1306
e 1210 1252
e 1211 1213
e 1211 1222
e 1211 1251
e 1213 1218
e 1213 1251
e 1214 1256
e 1215 1216
e 1215 1221
e 1215 1256
e 1216 1221
e 1216 1256
e 1217 1218
e 1219 1220
e 1221 1256
e 1223 1224
e 1223 1226
e 1223 1227
e 1224 1226
e 1224 1228
e 1224 1229
e 1225 1229
e 1226 1227
e 1226 1228
e 1228 1229
e 1230 1245
e 1231 1246
e 1232 1248
e 1233 1250
e 1236 1271
e 1237 1238
e 1237 1310
e 1238 1310
e 1239 1241
e 1239 1243
e 1240 1241
e 1240 1242
e 1240 1244
e 1241 1242
e 1241 1243
e 1242 1243
e 1242 1244
e 1243 1244
e 1245 1246
e 1249 1250
e 1252 1253
e 1255 1319
e 1255 1321
e 1258 1275
e 1258 1282
e 1262 1267
e 1262 1269
e 1264 1271
e 1264 1272
e 1265 1271
e 1265 1274
e 1266 1270
e 1267 1268
e 1267 1269
e 1267 1270
e 1268 1269
e 1268 1270
e 1268 1302
e 1269 1302
e 1274 1281
e 1275 1282
e 1276 1306
e 1279 1283
e 1280 1283
e 1281 1286
e 1281 1288
e 1286 1288
e 1289 1296
e 1290 1293
e 1291 1295
e 1293 1294
e 1298 1299
e 1302 1304
e 1303 1304
e 1305 1307
e 1308 1309
e 1310 1311
e 1312 1313
e 1315 1316
e 1317 1318
e 1319 1320
c k 7
